gen cost
0 4802
1 4802
2 4475
3 4475
4 4475
5 4475
6 4133
7 4133
8 4133
9 4109
10 4109
11 4109
12 4109
13 4109
14 4109
15 4109
16 4010
17 4010
18 3943
19 3893
20 3893
21 3580
22 3580
23 3580
24 3580
25 3580
26 3580
27 3580
28 3580
29 3365
30 3330
31 3303
32 3303
33 3303
34 3303
35 3281
36 3281
37 3275
38 3275
39 3087
40 3087
41 3071
42 3071
43 3071
44 3071
45 3071
46 3071
47 3061
48 3034
49 3021
time 0
